(set-logic QF_FPBV)
(set-option :produce-models true)
(set-info :source |Random FP created by PyMPF|)
(set-info :category random)
(set-info :status sat)
;; fp.from.sbv(BitVec 32)
(declare-const x (_ BitVec 32))
(assert (bvsle x #b11001101011010100001111101101110))
;; x should be -848683154
(declare-const r Float32)
(assert (= r ((_ to_fp 8 24) RNA x)))
(assert (fp.leq r (fp #b1 #b10011100 #b10010100101011110000010)))
(check-sat)
(exit)
